(set-option :produce-assignments true)
(set-logic ALL)
(declare-const GEN1 Int)
(declare-const GEN2 Int)
(declare-const GEN3 Int)
(declare-const GEN4 Int)
(declare-const GEN5 Int)
(declare-const GEN6 Int)
(declare-const GEN7 Int)
(declare-const BAV8 Bool)
(declare-const BAV9 Bool)
(declare-const BAV10 Bool)
(declare-const BAV11 Bool)
(declare-const BAV12 Bool)
(declare-const BAV13 Bool)
(declare-const BAV14 Bool)
(declare-const BAV15 Bool)
(declare-const BAV16 Bool)
(declare-const BAV17 Bool)
(declare-const BAV18 Bool)
(declare-const BAV19 Bool)
(declare-const BAV20 Bool)
(declare-fun I () Int)
(declare-fun B0 () Bool)
(declare-fun B1 () Bool)
(assert (and (=> (= I GEN1) (= B0 true)) (=> (not (distinct I GEN2 GEN3)) (= B1 false)) (=> (not (distinct I GEN4 GEN5)) (= B1 false)) (=> (not (distinct I GEN6 GEN7)) (= B1 false))))
(assert (= BAV8 (and (=> (= I GEN1) (= B0 true)) (=> (not (distinct I GEN2 GEN3)) (= B1 false)) (=> (not (distinct I GEN4 GEN5)) (= B1 false)) (=> (not (distinct I GEN6 GEN7)) (= B1 false)))))
(assert (= BAV9 (=> (= I GEN1) (= B0 true))))
(assert (= BAV10 (= I GEN1)))
(assert (= BAV11 (= B0 true)))
(assert (= BAV12 (=> (not (distinct I GEN2 GEN3)) (= B1 false))))
(assert (= BAV13 (distinct I GEN2 GEN3)))
(assert (= BAV14 (= B1 false)))
(assert (= BAV15 (=> (not (distinct I GEN4 GEN5)) (= B1 false))))
(assert (= BAV16 (distinct I GEN4 GEN5)))
(assert (= BAV17 (= B1 false)))
(assert (= BAV18 (=> (not (distinct I GEN6 GEN7)) (= B1 false))))
(assert (= BAV19 (distinct I GEN6 GEN7)))
(assert (= BAV20 (= B1 false)))
(check-sat)
(get-model)
(exit)